(set-logic QF_S)
(declare-fun var0 () String)
(assert (str.in.re var0 (re.++ (re.* (re.+ (str.to.re "00"))) (re.++ (re.* (re.+ (str.to.re "1"))) (re.++ (re.+ (re.+ (str.to.re "222"))) (re.++ (re.+ (re.* (str.to.re "3"))) (re.++ (re.+ (re.* (str.to.re "4"))) (re.++ (re.union (re.+ (str.to.re "5")) (re.+ (str.to.re "666"))) (re.++ (re.+ (re.* (str.to.re "777"))) (re.++ (re.+ (re.+ (str.to.re "888"))) (re.++ (re.union (re.union (str.to.re "999") (str.to.re "aaa")) (re.union (str.to.re "bbb") (str.to.re "ccc"))) (re.++ (re.+ (re.+ (str.to.re "d"))) (re.++ (re.+ (re.union (str.to.re "e") (str.to.re "ff"))) (re.++ (re.+ (re.union (str.to.re "ggg") (str.to.re "h"))) (re.++ (re.* (re.union (str.to.re "ii") (str.to.re "j"))) (re.++ (re.+ (re.union (str.to.re "kkk") (str.to.re "lll"))) (re.++ (re.* (re.+ (str.to.re "mm"))) (re.++ (re.+ (re.+ (str.to.re "n"))) (re.++ (re.+ (re.* (str.to.re "oo"))) (re.++ (re.union (re.* (str.to.re "p")) (re.* (str.to.re "qqq"))) (re.++ (re.* (re.union (str.to.re "rrr") (str.to.re "ss"))) (re.++ (re.union (re.+ (str.to.re "t")) (re.+ (str.to.re "u"))) (re.++ (re.union (re.* (str.to.re "vvv")) (re.* (str.to.re "www"))) (re.++ (re.union (re.+ (str.to.re "x")) (re.+ (str.to.re "yyy"))) (re.++ (re.* (re.* (str.to.re "zz"))) (re.++ (re.+ (re.+ (str.to.re "AAA"))) (re.++ (re.union (re.* (str.to.re "BBB")) (re.* (str.to.re "CC"))) (re.* (re.union (str.to.re "DDD") (str.to.re "EEE"))))))))))))))))))))))))))))))
(assert (not (str.in.re var0 (re.++ (re.+ (re.+ (str.to.re "0"))) (re.++ (re.union (re.+ (str.to.re "1")) (re.+ (str.to.re "222"))) (re.++ (re.+ (re.union (str.to.re "333") (str.to.re "4"))) (re.++ (re.union (re.* (str.to.re "55")) (re.* (str.to.re "666"))) (re.++ (re.* (re.* (str.to.re "777"))) (re.++ (re.+ (re.+ (str.to.re "8"))) (re.++ (re.+ (re.* (str.to.re "99"))) (re.++ (re.* (re.union (str.to.re "a") (str.to.re "bbb"))) (re.++ (re.* (re.+ (str.to.re "c"))) (re.++ (re.* (re.+ (str.to.re "dd"))) (re.++ (re.+ (re.* (str.to.re "e"))) (re.++ (re.union (re.+ (str.to.re "fff")) (re.+ (str.to.re "ggg"))) (re.++ (re.* (re.union (str.to.re "h") (str.to.re "i"))) (re.++ (re.* (re.+ (str.to.re "jj"))) (re.++ (re.* (re.union (str.to.re "kk") (str.to.re "ll"))) (re.++ (re.* (re.+ (str.to.re "m"))) (re.++ (re.+ (re.+ (str.to.re "n"))) (re.++ (re.* (re.union (str.to.re "o") (str.to.re "pp"))) (re.++ (re.union (re.+ (str.to.re "q")) (re.+ (str.to.re "rr"))) (re.++ (re.union (re.* (str.to.re "s")) (re.* (str.to.re "tt"))) (re.++ (re.union (re.union (str.to.re "uuu") (str.to.re "v")) (re.union (str.to.re "www") (str.to.re "xxx"))) (re.++ (re.+ (re.+ (str.to.re "y"))) (re.++ (re.* (re.* (str.to.re "zz"))) (re.++ (re.union (re.+ (str.to.re "AA")) (re.+ (str.to.re "BBB"))) (re.++ (re.union (re.+ (str.to.re "CCC")) (re.+ (str.to.re "DD"))) (re.* (re.union (str.to.re "E") (str.to.re "FF")))))))))))))))))))))))))))))))
(check-sat)